
Gurobi 6.5.2 (win64) logging started 07/22/16 21:38:30


Gurobi 6.5.2 (win64) logging started 07/22/16 21:38:30

Optimize a model with 3011 rows, 746 columns and 7716 nonzeros
Coefficient statistics:
  Matrix range    [6e-08, 1e+03]
  Objective range [1e+00, 1e+00]
  Bounds range    [1e+00, 1e+00]
  RHS range       [6e-06, 1e+03]
Presolve removed 2765 rows and 495 columns
Presolve time: 0.00s
Presolved: 246 rows, 251 columns, 1067 nonzeros
Variable types: 251 continuous, 0 integer (0 binary)

Root relaxation: objective 1.849003e+02, 290 iterations, 0.00 seconds

    Nodes    |    Current Node    |     Objective Bounds      |     Work
 Expl Unexpl |  Obj  Depth IntInf | Incumbent    BestBd   Gap | It/Node Time

*    0     0               0     184.9002626  184.90026  0.00%     -    0s

Explored 0 nodes (290 simplex iterations) in 0.02 seconds
Thread count was 8 (of 8 available processors)

Optimal solution found (tolerance 1.00e-04)
Best objective 1.849002625540e+02, best bound 1.849002625540e+02, gap 0.0%

Wrote requested result file 'H1\instance17\\Results17EC_Sol2.lp'

